<number of tasks>
89

<cycle time>
127

<task times>
1 28
2 17
3 7
4 10
5 12
6 16
7 13
8 8
9 13
10 24
11 16
12 24
13 12
14 20
15 22
16 22
17 22
18 47
19 6
20 12
21 6
22 22
23 7
24 14
25 68
26 15
27 8
28 74
29 32
30 11
31 18
32 15
33 42
34 27
35 38
36 38
37 26
38 35
39 31
40 8
41 14
42 8
43 8
44 8
45 17
46 7
47 19
48 12
49 24
50 26
51 22
52 14
53 27
54 60
55 4
56 2
57 1
58 9
59 5
60 6
61 7
62 12
63 2
64 11
65 14
66 6
67 21
68 14
69 1
70 6
71 21
72 11
73 14
74 28
75 12
76 11
77 30
78 22
79 14
80 31
81 18
82 16
83 7
84 38
85 8
86 31
87 29
88 12
89 18

<precedence relations>
1,2
2,3
3,4
4,5
4,6
4,7
4,8
4,9
5,10
6,11
7,12
8,18
9,18
10,14
11,12
12,13
13,14
14,15
14,16
15,17
16,54
17,18
18,19
18,20
19,22
20,21
20,28
21,54
22,23
23,24
24,25
25,26
25,27
25,29
26,37
27,33
28,29
29,31
30,54
31,32
32,33
33,34
34,35
35,36
35,37
36,38
37,38
38,39
39,40
39,41
39,42
39,43
40,44
41,53
42,53
43,45
44,52
45,46
46,47
47,48
47,49
49,50
50,51
51,52
52,53
53,68
53,69
53,70
53,71
54,55
55,56
56,57
57,58
57,59
57,60
57,61
57,62
57,63
57,64
57,65
57,66
58,67
59,67
60,67
61,67
62,67
63,67
64,67
65,67
66,67
67,73
68,72
69,72
70,72
71,73
72,78
72,80
73,74
74,75
74,76
75,77
76,81
77,78
78,79
79,81
80,81
81,82
81,84
81,85
82,83
83,86
84,86
85,86
86,87
87,88
87,89

<setup times forward>
1,30:3
2,30:3
3,30:3
4,9:3
4,30:3
5,9:3
5,10:7
5,12:7
5,13:7
5,30:3
6,9:3
6,10:7
6,30:3
7,9:3
7,10:7
7,12:7
7,30:3
8,9:3
8,10:7
8,12:7
8,13:7
8,14:7
8,15:7
8,16:3
8,17:7
8,18:3
8,30:3
9,5:3
9,6:3
9,7:3
9,8:3
9,10:10
9,11:3
9,12:10
9,13:10
9,14:10
9,15:10
9,16:6
9,17:10
9,30:6
10,6:7
10,7:7
10,8:7
10,9:10
10,11:7
10,30:4
11,9:3
11,10:7
11,12:7
11,30:3
12,5:7
12,8:7
12,9:10
12,30:4
13,5:7
13,8:7
13,9:10
13,30:4
14,8:7
14,9:10
14,16:4
14,30:4
15,8:7
15,9:10
15,16:4
15,30:4
16,8:3
16,9:6
16,15:4
16,17:4
16,18:6
16,19:6
16,20:6
16,21:6
16,22:6
16,23:6
16,24:6
16,28:1
16,29:1
16,31:1
16,32:7
16,33:7
16,34:7
16,35:7
16,36:3
16,37:3
16,38:3
16,39:9
16,40:9
16,41:6
16,42:1
16,43:9
16,44:9
16,45:9
16,46:9
16,47:9
16,48:11
16,49:9
16,50:1
16,51:1
16,52:6
16,53:6
16,54:1
16,68:4
16,69:6
16,70:4
16,71:11
16,72:4
16,80:4
17,8:7
17,9:10
17,16:4
17,18:10
17,30:4
18,16:6
18,30:6
19,16:6
19,28:5
19,30:6
19,54:7
19,55:7
19,56:7
19,57:7
19,63:7
19,67:5
20,16:6
20,25:6
20,26:6
20,27:6
20,28:5
20,30:6
21,16:6
21,25:6
21,26:6
21,27:6
21,28:5
21,29:5
21,30:6
21,31:5
21,32:1
21,33:1
21,34:1
21,35:1
21,36:3
21,37:3
21,38:3
21,39:3
21,40:3
21,42:7
21,43:3
21,44:3
21,45:3
21,46:3
21,47:3
21,48:5
21,49:3
21,50:7
21,51:7
21,54:7
21,68:2
21,70:2
21,71:5
21,72:2
21,80:2
22,16:6
22,28:5
22,30:6
22,54:7
22,55:7
22,56:7
22,57:7
22,63:7
22,67:5
23,16:6
23,28:5
23,30:6
23,54:7
23,55:7
23,56:7
23,57:7
23,63:7
23,67:5
24,16:6
24,25:6
24,28:5
24,30:6
24,54:7
24,55:7
24,56:7
24,57:7
24,63:7
24,67:5
25,20:6
25,21:6
25,28:1
25,29:1
25,54:1
25,55:1
25,56:1
25,57:1
25,58:6
25,59:6
25,60:6
25,61:6
25,62:6
25,63:1
25,64:6
25,65:6
25,66:6
25,67:11
26,20:6
26,21:6
26,28:1
26,29:1
26,31:1
26,32:7
26,33:7
26,34:7
26,35:7
26,36:3
26,37:3
26,54:1
26,55:1
26,56:1
26,57:1
26,58:6
26,59:6
26,60:6
26,61:6
26,62:6
26,63:1
26,64:6
26,65:6
26,66:6
26,67:11
27,20:6
27,21:6
27,28:1
27,29:1
27,31:1
27,32:7
27,33:7
27,54:1
27,55:1
27,56:1
27,57:1
27,58:6
27,59:6
27,60:6
27,61:6
27,62:6
27,63:1
27,64:6
27,65:6
27,66:6
27,67:11
28,16:1
28,19:5
28,21:5
28,22:5
28,23:5
28,24:5
28,25:1
28,26:1
28,27:1
28,30:1
28,54:2
28,55:2
28,56:2
28,57:2
28,58:5
28,59:5
28,60:5
28,61:5
28,62:5
28,63:2
28,64:5
28,65:5
28,66:5
28,67:10
29,16:1
29,21:5
29,26:1
29,27:1
29,30:1
29,54:2
29,55:2
29,56:2
29,57:2
29,58:5
29,59:5
29,60:5
29,61:5
29,62:5
29,63:2
29,64:5
29,65:5
29,66:5
29,67:10
30,1:3
30,2:3
30,3:3
30,4:3
30,5:3
30,6:3
30,7:3
30,8:3
30,9:6
30,10:4
30,11:3
30,12:4
30,13:4
30,14:4
30,15:4
30,17:4
30,18:6
30,19:6
30,20:6
30,21:6
30,22:6
30,23:6
30,24:6
30,28:1
30,29:1
30,31:1
30,32:7
30,33:7
30,34:7
30,35:7
30,36:3
30,37:3
30,38:3
30,39:9
30,40:9
30,41:6
30,42:1
30,43:9
30,44:9
30,45:9
30,46:9
30,47:9
30,48:11
30,49:9
30,50:1
30,51:1
30,52:6
30,53:6
30,54:1
30,68:4
30,69:6
30,70:4
30,71:11
30,72:4
30,80:4
31,16:1
31,21:5
31,26:1
31,27:1
31,30:1
31,32:6
31,54:2
31,55:2
31,56:2
31,57:2
31,58:5
31,59:5
31,60:5
31,61:5
31,62:5
31,63:2
31,64:5
31,65:5
31,66:5
31,67:10
32,16:7
32,21:1
32,26:7
32,27:7
32,30:7
32,54:8
32,55:8
32,56:8
32,57:8
32,58:1
32,59:1
32,60:1
32,61:1
32,62:1
32,63:8
32,64:1
32,65:1
32,66:1
32,67:4
33,16:7
33,21:1
33,26:7
33,30:7
33,54:8
33,55:8
33,56:8
33,57:8
33,58:1
33,59:1
33,60:1
33,61:1
33,62:1
33,63:8
33,64:1
33,65:1
33,66:1
33,67:4
34,16:7
34,21:1
34,26:7
34,30:7
34,54:8
34,55:8
34,56:8
34,57:8
34,58:1
34,59:1
34,60:1
34,61:1
34,62:1
34,63:8
34,64:1
34,65:1
34,66:1
34,67:4
35,16:7
35,21:1
35,26:7
35,30:7
35,36:4
35,37:4
35,54:8
35,55:8
35,56:8
35,57:8
35,58:1
35,59:1
35,60:1
35,61:1
35,62:1
35,63:8
35,64:1
35,65:1
35,66:1
35,67:4
36,16:3
36,21:3
36,26:3
36,30:3
36,54:4
36,55:4
36,56:4
36,57:4
36,58:3
36,59:3
36,60:3
36,61:3
36,62:3
36,63:4
36,64:3
36,65:3
36,66:3
36,67:8
37,16:3
37,21:3
37,30:3
37,54:4
37,55:4
37,56:4
37,57:4
37,58:3
37,59:3
37,60:3
37,61:3
37,62:3
37,63:4
37,64:3
37,65:3
37,66:3
37,67:8
38,16:3
38,21:3
38,30:3
38,39:6
38,54:4
38,55:4
38,56:4
38,57:4
38,58:3
38,59:3
38,60:3
38,61:3
38,62:3
38,63:4
38,64:3
38,65:3
38,66:3
38,67:8
39,16:9
39,21:3
39,30:9
39,41:3
39,42:10
39,54:10
39,55:10
39,56:10
39,57:10
39,58:3
39,59:3
39,60:3
39,61:3
39,62:3
39,63:10
39,64:3
39,65:3
39,66:3
39,67:2
40,16:9
40,21:3
40,30:9
40,41:3
40,42:10
40,48:2
40,50:10
40,51:10
40,54:10
40,55:10
40,56:10
40,57:10
40,58:3
40,59:3
40,60:3
40,61:3
40,62:3
40,63:10
40,64:3
40,65:3
40,66:3
40,67:2
41,16:6
41,30:6
41,40:3
41,42:7
41,43:3
41,44:3
41,45:3
41,46:3
41,47:3
41,48:5
41,49:3
41,50:7
41,51:7
41,54:7
41,55:7
41,56:7
41,57:7
41,63:7
41,67:5
42,16:1
42,21:7
42,30:1
42,40:10
42,41:7
42,43:10
42,44:10
42,45:10
42,46:10
42,47:10
42,48:12
42,49:10
42,52:7
42,53:7
42,58:7
42,59:7
42,60:7
42,61:7
42,62:7
42,64:7
42,65:7
42,66:7
42,67:12
43,16:9
43,21:3
43,30:9
43,41:3
43,42:10
43,54:10
43,55:10
43,56:10
43,57:10
43,58:3
43,59:3
43,60:3
43,61:3
43,62:3
43,63:10
43,64:3
43,65:3
43,66:3
43,67:2
44,16:9
44,21:3
44,30:9
44,41:3
44,42:10
44,48:2
44,50:10
44,51:10
44,52:3
44,54:10
44,55:10
44,56:10
44,57:10
44,58:3
44,59:3
44,60:3
44,61:3
44,62:3
44,63:10
44,64:3
44,65:3
44,66:3
44,67:2
45,16:9
45,21:3
45,30:9
45,41:3
45,42:10
45,54:10
45,55:10
45,56:10
45,57:10
45,58:3
45,59:3
45,60:3
45,61:3
45,62:3
45,63:10
45,64:3
45,65:3
45,66:3
45,67:2
46,16:9
46,21:3
46,30:9
46,41:3
46,42:10
46,54:10
46,55:10
46,56:10
46,57:10
46,58:3
46,59:3
46,60:3
46,61:3
46,62:3
46,63:10
46,64:3
46,65:3
46,66:3
46,67:2
47,16:9
47,21:3
47,30:9
47,41:3
47,42:10
47,48:2
47,54:10
47,55:10
47,56:10
47,57:10
47,58:3
47,59:3
47,60:3
47,61:3
47,62:3
47,63:10
47,64:3
47,65:3
47,66:3
47,67:2
48,16:11
48,21:5
48,30:11
48,40:2
48,41:5
48,42:12
48,44:2
48,49:2
48,50:12
48,51:12
48,52:5
48,53:5
48,54:12
48,55:12
48,56:12
48,57:12
48,58:5
48,59:5
48,60:5
48,61:5
48,62:5
48,63:12
48,64:5
48,65:5
48,66:5
48,68:7
48,69:5
48,70:7
48,72:7
48,73:7
48,74:7
48,75:7
48,76:7
48,77:10
48,78:10
48,79:10
48,80:7
48,81:10
48,82:13
48,83:13
48,84:10
48,85:13
48,86:13
48,87:13
48,88:13
48,89:13
49,16:9
49,21:3
49,30:9
49,41:3
49,42:10
49,48:2
49,50:10
49,54:10
49,55:10
49,56:10
49,57:10
49,58:3
49,59:3
49,60:3
49,61:3
49,62:3
49,63:10
49,64:3
49,65:3
49,66:3
49,67:2
50,16:1
50,21:7
50,30:1
50,40:10
50,41:7
50,44:10
50,48:12
50,58:7
50,59:7
50,60:7
50,61:7
50,62:7
50,64:7
50,65:7
50,66:7
50,67:12
51,16:1
51,21:7
51,30:1
51,40:10
51,41:7
51,44:10
51,48:12
51,52:7
51,58:7
51,59:7
51,60:7
51,61:7
51,62:7
51,64:7
51,65:7
51,66:7
51,67:12
52,16:6
52,30:6
52,42:7
52,48:5
52,54:7
52,55:7
52,56:7
52,57:7
52,63:7
52,67:5
53,16:6
53,30:6
53,48:5
53,54:7
53,55:7
53,56:7
53,57:7
53,63:7
53,67:5
53,68:2
53,70:2
53,71:5
54,19:7
54,22:7
54,23:7
54,24:7
54,25:1
54,26:1
54,27:1
54,28:2
54,29:2
54,31:2
54,32:8
54,33:8
54,34:8
54,35:8
54,36:4
54,37:4
54,38:4
54,39:10
54,40:10
54,41:7
54,43:10
54,44:10
54,45:10
54,46:10
54,47:10
54,48:12
54,49:10
54,52:7
54,53:7
54,68:5
54,69:7
54,70:5
54,71:12
54,72:5
54,80:5
55,19:7
55,22:7
55,23:7
55,24:7
55,25:1
55,26:1
55,27:1
55,28:2
55,29:2
55,31:2
55,32:8
55,33:8
55,34:8
55,35:8
55,36:4
55,37:4
55,38:4
55,39:10
55,40:10
55,41:7
55,43:10
55,44:10
55,45:10
55,46:10
55,47:10
55,48:12
55,49:10
55,52:7
55,53:7
55,68:5
55,69:7
55,70:5
55,71:12
55,72:5
55,80:5
56,19:7
56,22:7
56,23:7
56,24:7
56,25:1
56,26:1
56,27:1
56,28:2
56,29:2
56,31:2
56,32:8
56,33:8
56,34:8
56,35:8
56,36:4
56,37:4
56,38:4
56,39:10
56,40:10
56,41:7
56,43:10
56,44:10
56,45:10
56,46:10
56,47:10
56,48:12
56,49:10
56,52:7
56,53:7
56,68:5
56,69:7
56,70:5
56,71:12
56,72:5
56,80:5
57,19:7
57,22:7
57,23:7
57,24:7
57,25:1
57,26:1
57,27:1
57,28:2
57,29:2
57,31:2
57,32:8
57,33:8
57,34:8
57,35:8
57,36:4
57,37:4
57,38:4
57,39:10
57,40:10
57,41:7
57,43:10
57,44:10
57,45:10
57,46:10
57,47:10
57,48:12
57,49:10
57,52:7
57,53:7
57,58:7
57,59:7
57,60:7
57,61:7
57,62:7
57,64:7
57,65:7
57,66:7
57,68:5
57,69:7
57,70:5
57,71:12
57,72:5
57,80:5
58,25:6
58,26:6
58,27:6
58,28:5
58,29:5
58,31:5
58,32:1
58,33:1
58,34:1
58,35:1
58,36:3
58,37:3
58,38:3
58,39:3
58,40:3
58,42:7
58,43:3
58,44:3
58,45:3
58,46:3
58,47:3
58,48:5
58,49:3
58,50:7
58,51:7
58,63:7
58,67:5
58,68:2
58,70:2
58,71:5
58,72:2
58,80:2
59,25:6
59,26:6
59,27:6
59,28:5
59,29:5
59,31:5
59,32:1
59,33:1
59,34:1
59,35:1
59,36:3
59,37:3
59,38:3
59,39:3
59,40:3
59,42:7
59,43:3
59,44:3
59,45:3
59,46:3
59,47:3
59,48:5
59,49:3
59,50:7
59,51:7
59,63:7
59,67:5
59,68:2
59,70:2
59,71:5
59,72:2
59,80:2
60,25:6
60,26:6
60,27:6
60,28:5
60,29:5
60,31:5
60,32:1
60,33:1
60,34:1
60,35:1
60,36:3
60,37:3
60,38:3
60,39:3
60,40:3
60,42:7
60,43:3
60,44:3
60,45:3
60,46:3
60,47:3
60,48:5
60,49:3
60,50:7
60,51:7
60,63:7
60,67:5
60,68:2
60,70:2
60,71:5
60,72:2
60,80:2
61,25:6
61,26:6
61,27:6
61,28:5
61,29:5
61,31:5
61,32:1
61,33:1
61,34:1
61,35:1
61,36:3
61,37:3
61,38:3
61,39:3
61,40:3
61,42:7
61,43:3
61,44:3
61,45:3
61,46:3
61,47:3
61,48:5
61,49:3
61,50:7
61,51:7
61,63:7
61,67:5
61,68:2
61,70:2
61,71:5
61,72:2
61,80:2
62,25:6
62,26:6
62,27:6
62,28:5
62,29:5
62,31:5
62,32:1
62,33:1
62,34:1
62,35:1
62,36:3
62,37:3
62,38:3
62,39:3
62,40:3
62,42:7
62,43:3
62,44:3
62,45:3
62,46:3
62,47:3
62,48:5
62,49:3
62,50:7
62,51:7
62,63:7
62,67:5
62,68:2
62,70:2
62,71:5
62,72:2
62,80:2
63,19:7
63,22:7
63,23:7
63,24:7
63,25:1
63,26:1
63,27:1
63,28:2
63,29:2
63,31:2
63,32:8
63,33:8
63,34:8
63,35:8
63,36:4
63,37:4
63,38:4
63,39:10
63,40:10
63,41:7
63,43:10
63,44:10
63,45:10
63,46:10
63,47:10
63,48:12
63,49:10
63,52:7
63,53:7
63,58:7
63,59:7
63,60:7
63,61:7
63,62:7
63,64:7
63,65:7
63,66:7
63,67:12
63,68:5
63,69:7
63,70:5
63,71:12
63,72:5
63,80:5
64,25:6
64,26:6
64,27:6
64,28:5
64,29:5
64,31:5
64,32:1
64,33:1
64,34:1
64,35:1
64,36:3
64,37:3
64,38:3
64,39:3
64,40:3
64,42:7
64,43:3
64,44:3
64,45:3
64,46:3
64,47:3
64,48:5
64,49:3
64,50:7
64,51:7
64,63:7
64,67:5
64,68:2
64,70:2
64,71:5
64,72:2
64,80:2
65,25:6
65,26:6
65,27:6
65,28:5
65,29:5
65,31:5
65,32:1
65,33:1
65,34:1
65,35:1
65,36:3
65,37:3
65,38:3
65,39:3
65,40:3
65,42:7
65,43:3
65,44:3
65,45:3
65,46:3
65,47:3
65,48:5
65,49:3
65,50:7
65,51:7
65,63:7
65,67:5
65,68:2
65,70:2
65,71:5
65,72:2
65,80:2
66,25:6
66,26:6
66,27:6
66,28:5
66,29:5
66,31:5
66,32:1
66,33:1
66,34:1
66,35:1
66,36:3
66,37:3
66,38:3
66,39:3
66,40:3
66,42:7
66,43:3
66,44:3
66,45:3
66,46:3
66,47:3
66,48:5
66,49:3
66,50:7
66,51:7
66,63:7
66,67:5
66,68:2
66,70:2
66,71:5
66,72:2
66,80:2
67,19:5
67,22:5
67,23:5
67,24:5
67,25:11
67,26:11
67,27:11
67,28:10
67,29:10
67,31:10
67,32:4
67,33:4
67,34:4
67,35:4
67,36:8
67,37:8
67,38:8
67,39:2
67,40:2
67,41:5
67,42:12
67,43:2
67,44:2
67,45:2
67,46:2
67,47:2
67,49:2
67,50:12
67,51:12
67,52:5
67,53:5
67,68:7
67,69:5
67,70:7
67,72:7
67,73:7
67,80:7
68,16:4
68,21:2
68,30:4
68,48:7
68,54:5
68,55:5
68,56:5
68,57:5
68,58:2
68,59:2
68,60:2
68,61:2
68,62:2
68,63:5
68,64:2
68,65:2
68,66:2
68,67:7
68,69:2
68,71:7
68,77:3
69,16:6
69,30:6
69,48:5
69,54:7
69,55:7
69,56:7
69,57:7
69,63:7
69,67:5
69,68:2
69,70:2
69,71:5
69,72:2
69,73:2
69,74:2
69,75:2
69,76:2
69,77:5
70,16:4
70,21:2
70,30:4
70,48:7
70,54:5
70,55:5
70,56:5
70,57:5
70,58:2
70,59:2
70,60:2
70,61:2
70,62:2
70,63:5
70,64:2
70,65:2
70,66:2
70,67:7
70,69:2
70,71:7
70,77:3
71,16:11
71,21:5
71,30:11
71,54:12
71,55:12
71,56:12
71,57:12
71,58:5
71,59:5
71,60:5
71,61:5
71,62:5
71,63:12
71,64:5
71,65:5
71,66:5
71,68:7
71,69:5
71,70:7
71,72:7
71,73:7
71,80:7
72,16:4
72,21:2
72,30:4
72,48:7
72,54:5
72,55:5
72,56:5
72,57:5
72,58:2
72,59:2
72,60:2
72,61:2
72,62:2
72,63:5
72,64:2
72,65:2
72,66:2
72,67:7
72,71:7
72,77:3
72,78:3
73,48:7
73,69:2
74,48:7
74,69:2
75,48:7
75,69:2
75,77:3
76,48:7
76,69:2
76,77:3
76,78:3
76,79:3
76,81:3
77,48:10
77,68:3
77,69:5
77,70:3
77,72:3
77,76:3
77,80:3
78,48:10
78,76:3
78,80:3
79,48:10
79,76:3
79,80:3
80,16:4
80,21:2
80,30:4
80,48:7
80,54:5
80,55:5
80,56:5
80,57:5
80,58:2
80,59:2
80,60:2
80,61:2
80,62:2
80,63:5
80,64:2
80,65:2
80,66:2
80,67:7
80,71:7
80,77:3
80,78:3
80,79:3
80,81:3
81,48:10
81,82:3
81,85:3
82,48:13
82,84:3
83,48:13
83,84:3
84,48:10
84,82:3
84,83:3
84,85:3
84,86:3
85,48:13
85,84:3
86,48:13
87,48:13
88,48:13
89,48:13

<setup times backward>
5,9:3
6,9:3
7,9:3
8,9:3
10,1:7
10,2:7
10,3:7
10,4:7
10,5:7
10,6:7
10,7:7
10,8:7
10,9:10
10,11:7
10,30:4
11,9:3
12,1:7
12,2:7
12,3:7
12,4:7
12,5:7
12,6:7
12,7:7
12,8:7
12,9:10
12,11:7
12,30:4
13,1:7
13,2:7
13,3:7
13,4:7
13,5:7
13,6:7
13,7:7
13,8:7
13,9:10
13,11:7
13,30:4
14,1:7
14,2:7
14,3:7
14,4:7
14,5:7
14,6:7
14,7:7
14,8:7
14,9:10
14,11:7
14,30:4
15,1:7
15,2:7
15,3:7
15,4:7
15,5:7
15,6:7
15,7:7
15,8:7
15,9:10
15,11:7
15,16:4
15,30:4
16,1:3
16,2:3
16,3:3
16,4:3
16,5:3
16,6:3
16,7:3
16,8:3
16,9:6
16,11:3
16,18:6
16,19:6
16,20:6
16,21:6
16,22:6
16,23:6
16,24:6
16,28:1
16,29:1
16,31:1
16,32:7
16,33:7
16,34:7
16,35:7
16,36:3
16,37:3
16,38:3
16,39:9
16,40:9
16,41:6
16,43:9
16,44:9
16,45:9
16,46:9
16,47:9
16,48:11
16,49:9
16,52:6
16,53:6
16,68:4
16,69:6
16,70:4
16,71:11
16,72:4
16,80:4
17,1:7
17,2:7
17,3:7
17,4:7
17,5:7
17,6:7
17,7:7
17,8:7
17,9:10
17,11:7
17,16:4
17,30:4
19,67:5
21,32:1
21,33:1
21,34:1
21,35:1
21,39:3
21,40:3
21,43:3
21,44:3
21,45:3
21,46:3
21,47:3
21,48:5
21,49:3
21,71:5
22,67:5
23,67:5
24,67:5
25,1:3
25,2:3
25,3:3
25,4:3
25,5:3
25,6:3
25,7:3
25,8:3
25,9:6
25,11:3
25,18:6
25,19:6
25,20:6
25,21:6
25,22:6
25,23:6
25,24:6
25,28:1
25,58:6
25,59:6
25,60:6
25,61:6
25,62:6
25,64:6
25,65:6
25,66:6
25,67:11
26,1:3
26,2:3
26,3:3
26,4:3
26,5:3
26,6:3
26,7:3
26,8:3
26,9:6
26,11:3
26,18:6
26,19:6
26,20:6
26,21:6
26,22:6
26,23:6
26,24:6
26,28:1
26,29:1
26,31:1
26,32:7
26,33:7
26,34:7
26,35:7
26,36:3
26,58:6
26,59:6
26,60:6
26,61:6
26,62:6
26,64:6
26,65:6
26,66:6
26,67:11
27,1:3
27,2:3
27,3:3
27,4:3
27,5:3
27,6:3
27,7:3
27,8:3
27,9:6
27,11:3
27,18:6
27,19:6
27,20:6
27,21:6
27,22:6
27,23:6
27,24:6
27,28:1
27,29:1
27,31:1
27,32:7
27,58:6
27,59:6
27,60:6
27,61:6
27,62:6
27,64:6
27,65:6
27,66:6
27,67:11
28,1:2
28,2:2
28,3:2
28,4:2
28,5:2
28,6:2
28,7:2
28,8:2
28,9:5
28,11:2
28,18:5
28,19:5
28,20:5
28,21:5
28,22:5
28,23:5
28,24:5
28,58:5
28,59:5
28,60:5
28,61:5
28,62:5
28,64:5
28,65:5
28,66:5
28,67:10
29,1:2
29,2:2
29,3:2
29,4:2
29,5:2
29,6:2
29,7:2
29,8:2
29,9:5
29,11:2
29,18:5
29,19:5
29,20:5
29,21:5
29,22:5
29,23:5
29,24:5
29,58:5
29,59:5
29,60:5
29,61:5
29,62:5
29,64:5
29,65:5
29,66:5
29,67:10
30,1:3
30,2:3
30,3:3
30,4:3
30,5:3
30,6:3
30,7:3
30,8:3
30,9:6
30,11:3
30,18:6
30,19:6
30,20:6
30,21:6
30,22:6
30,23:6
30,24:6
30,28:1
30,29:1
30,31:1
30,32:7
30,33:7
30,34:7
30,35:7
30,36:3
30,37:3
30,38:3
30,39:9
30,40:9
30,41:6
30,43:9
30,44:9
30,45:9
30,46:9
30,47:9
30,48:11
30,49:9
30,52:6
30,53:6
30,68:4
30,69:6
30,70:4
30,71:11
30,72:4
30,80:4
31,1:2
31,2:2
31,3:2
31,4:2
31,5:2
31,6:2
31,7:2
31,8:2
31,9:5
31,11:2
31,18:5
31,19:5
31,20:5
31,21:5
31,22:5
31,23:5
31,24:5
31,58:5
31,59:5
31,60:5
31,61:5
31,62:5
31,64:5
31,65:5
31,66:5
31,67:10
32,67:4
33,67:4
34,67:4
35,67:4
36,9:3
36,18:3
36,19:3
36,20:3
36,21:3
36,22:3
36,23:3
36,24:3
36,32:4
36,33:4
36,34:4
36,35:4
36,58:3
36,59:3
36,60:3
36,61:3
36,62:3
36,64:3
36,65:3
36,66:3
36,67:8
37,9:3
37,18:3
37,19:3
37,20:3
37,21:3
37,22:3
37,23:3
37,24:3
37,32:4
37,33:4
37,34:4
37,35:4
37,58:3
37,59:3
37,60:3
37,61:3
37,62:3
37,64:3
37,65:3
37,66:3
37,67:8
38,9:3
38,18:3
38,19:3
38,20:3
38,21:3
38,22:3
38,23:3
38,24:3
38,32:4
38,33:4
38,34:4
38,35:4
38,58:3
38,59:3
38,60:3
38,61:3
38,62:3
38,64:3
38,65:3
38,66:3
38,67:8
39,67:2
40,48:2
40,67:2
41,32:1
41,33:1
41,34:1
41,35:1
41,39:3
41,40:3
41,43:3
41,44:3
41,45:3
41,46:3
41,47:3
41,48:5
41,49:3
41,67:5
42,1:4
42,2:4
42,3:4
42,4:4
42,5:4
42,6:4
42,7:4
42,8:4
42,9:7
42,11:4
42,16:1
42,18:7
42,19:7
42,20:7
42,21:7
42,22:7
42,23:7
42,24:7
42,25:1
42,26:1
42,27:1
42,28:2
42,29:2
42,30:1
42,31:2
42,32:8
42,33:8
42,34:8
42,35:8
42,36:4
42,37:4
42,38:4
42,39:10
42,40:10
42,41:7
42,43:10
42,44:10
42,45:10
42,46:10
42,47:10
42,48:12
42,49:10
42,52:7
42,58:7
42,59:7
42,60:7
42,61:7
42,62:7
42,64:7
42,65:7
42,66:7
42,67:12
43,67:2
44,48:2
44,67:2
45,67:2
46,67:2
47,67:2
49,48:2
49,67:2
50,1:4
50,2:4
50,3:4
50,4:4
50,5:4
50,6:4
50,7:4
50,8:4
50,9:7
50,11:4
50,16:1
50,18:7
50,19:7
50,20:7
50,21:7
50,22:7
50,23:7
50,24:7
50,25:1
50,26:1
50,27:1
50,28:2
50,29:2
50,30:1
50,31:2
50,32:8
50,33:8
50,34:8
50,35:8
50,36:4
50,37:4
50,38:4
50,39:10
50,40:10
50,41:7
50,43:10
50,44:10
50,45:10
50,46:10
50,47:10
50,48:12
50,49:10
50,58:7
50,59:7
50,60:7
50,61:7
50,62:7
50,64:7
50,65:7
50,66:7
50,67:12
51,1:4
51,2:4
51,3:4
51,4:4
51,5:4
51,6:4
51,7:4
51,8:4
51,9:7
51,11:4
51,16:1
51,18:7
51,19:7
51,20:7
51,21:7
51,22:7
51,23:7
51,24:7
51,25:1
51,26:1
51,27:1
51,28:2
51,29:2
51,30:1
51,31:2
51,32:8
51,33:8
51,34:8
51,35:8
51,36:4
51,37:4
51,38:4
51,39:10
51,40:10
51,41:7
51,43:10
51,44:10
51,45:10
51,46:10
51,47:10
51,48:12
51,49:10
51,58:7
51,59:7
51,60:7
51,61:7
51,62:7
51,64:7
51,65:7
51,66:7
51,67:12
52,32:1
52,33:1
52,34:1
52,35:1
52,39:3
52,40:3
52,43:3
52,44:3
52,45:3
52,46:3
52,47:3
52,48:5
52,49:3
52,67:5
53,32:1
53,33:1
53,34:1
53,35:1
53,39:3
53,40:3
53,43:3
53,44:3
53,45:3
53,46:3
53,47:3
53,48:5
53,49:3
53,67:5
54,1:4
54,2:4
54,3:4
54,4:4
54,5:4
54,6:4
54,7:4
54,8:4
54,9:7
54,11:4
54,16:1
54,18:7
54,19:7
54,20:7
54,21:7
54,22:7
54,23:7
54,24:7
54,25:1
54,26:1
54,27:1
54,28:2
54,29:2
54,30:1
54,31:2
54,32:8
54,33:8
54,34:8
54,35:8
54,36:4
54,37:4
54,38:4
54,39:10
54,40:10
54,41:7
54,43:10
54,44:10
54,45:10
54,46:10
54,47:10
54,48:12
54,49:10
54,52:7
54,53:7
54,68:5
54,69:7
54,70:5
54,71:12
54,72:5
54,80:5
55,1:4
55,2:4
55,3:4
55,4:4
55,5:4
55,6:4
55,7:4
55,8:4
55,9:7
55,11:4
55,16:1
55,18:7
55,19:7
55,20:7
55,21:7
55,22:7
55,23:7
55,24:7
55,25:1
55,26:1
55,27:1
55,28:2
55,29:2
55,30:1
55,31:2
55,32:8
55,33:8
55,34:8
55,35:8
55,36:4
55,37:4
55,38:4
55,39:10
55,40:10
55,41:7
55,43:10
55,44:10
55,45:10
55,46:10
55,47:10
55,48:12
55,49:10
55,52:7
55,53:7
55,68:5
55,69:7
55,70:5
55,71:12
55,72:5
55,80:5
56,1:4
56,2:4
56,3:4
56,4:4
56,5:4
56,6:4
56,7:4
56,8:4
56,9:7
56,11:4
56,16:1
56,18:7
56,19:7
56,20:7
56,21:7
56,22:7
56,23:7
56,24:7
56,25:1
56,26:1
56,27:1
56,28:2
56,29:2
56,30:1
56,31:2
56,32:8
56,33:8
56,34:8
56,35:8
56,36:4
56,37:4
56,38:4
56,39:10
56,40:10
56,41:7
56,43:10
56,44:10
56,45:10
56,46:10
56,47:10
56,48:12
56,49:10
56,52:7
56,53:7
56,68:5
56,69:7
56,70:5
56,71:12
56,72:5
56,80:5
57,1:4
57,2:4
57,3:4
57,4:4
57,5:4
57,6:4
57,7:4
57,8:4
57,9:7
57,11:4
57,16:1
57,18:7
57,19:7
57,20:7
57,21:7
57,22:7
57,23:7
57,24:7
57,25:1
57,26:1
57,27:1
57,28:2
57,29:2
57,30:1
57,31:2
57,32:8
57,33:8
57,34:8
57,35:8
57,36:4
57,37:4
57,38:4
57,39:10
57,40:10
57,41:7
57,43:10
57,44:10
57,45:10
57,46:10
57,47:10
57,48:12
57,49:10
57,52:7
57,53:7
57,68:5
57,69:7
57,70:5
57,71:12
57,72:5
57,80:5
58,32:1
58,33:1
58,34:1
58,35:1
58,39:3
58,40:3
58,43:3
58,44:3
58,45:3
58,46:3
58,47:3
58,48:5
58,49:3
58,71:5
59,32:1
59,33:1
59,34:1
59,35:1
59,39:3
59,40:3
59,43:3
59,44:3
59,45:3
59,46:3
59,47:3
59,48:5
59,49:3
59,71:5
60,32:1
60,33:1
60,34:1
60,35:1
60,39:3
60,40:3
60,43:3
60,44:3
60,45:3
60,46:3
60,47:3
60,48:5
60,49:3
60,71:5
61,32:1
61,33:1
61,34:1
61,35:1
61,39:3
61,40:3
61,43:3
61,44:3
61,45:3
61,46:3
61,47:3
61,48:5
61,49:3
61,71:5
62,32:1
62,33:1
62,34:1
62,35:1
62,39:3
62,40:3
62,43:3
62,44:3
62,45:3
62,46:3
62,47:3
62,48:5
62,49:3
62,71:5
63,1:4
63,2:4
63,3:4
63,4:4
63,5:4
63,6:4
63,7:4
63,8:4
63,9:7
63,11:4
63,16:1
63,18:7
63,19:7
63,20:7
63,21:7
63,22:7
63,23:7
63,24:7
63,25:1
63,26:1
63,27:1
63,28:2
63,29:2
63,30:1
63,31:2
63,32:8
63,33:8
63,34:8
63,35:8
63,36:4
63,37:4
63,38:4
63,39:10
63,40:10
63,41:7
63,43:10
63,44:10
63,45:10
63,46:10
63,47:10
63,48:12
63,49:10
63,52:7
63,53:7
63,58:7
63,59:7
63,60:7
63,61:7
63,62:7
63,64:7
63,65:7
63,66:7
63,68:5
63,69:7
63,70:5
63,71:12
63,72:5
63,80:5
64,32:1
64,33:1
64,34:1
64,35:1
64,39:3
64,40:3
64,43:3
64,44:3
64,45:3
64,46:3
64,47:3
64,48:5
64,49:3
64,71:5
65,32:1
65,33:1
65,34:1
65,35:1
65,39:3
65,40:3
65,43:3
65,44:3
65,45:3
65,46:3
65,47:3
65,48:5
65,49:3
65,71:5
66,32:1
66,33:1
66,34:1
66,35:1
66,39:3
66,40:3
66,43:3
66,44:3
66,45:3
66,46:3
66,47:3
66,48:5
66,49:3
66,71:5
68,9:2
68,18:2
68,19:2
68,20:2
68,21:2
68,22:2
68,23:2
68,24:2
68,32:3
68,33:3
68,34:3
68,35:3
68,39:5
68,40:5
68,41:2
68,43:5
68,44:5
68,45:5
68,46:5
68,47:5
68,48:7
68,49:5
68,52:2
68,53:2
68,58:2
68,59:2
68,60:2
68,61:2
68,62:2
68,64:2
68,65:2
68,66:2
68,67:7
68,69:2
68,71:7
69,32:1
69,33:1
69,34:1
69,35:1
69,39:3
69,40:3
69,43:3
69,44:3
69,45:3
69,46:3
69,47:3
69,48:5
69,49:3
69,67:5
69,71:5
70,9:2
70,18:2
70,19:2
70,20:2
70,21:2
70,22:2
70,23:2
70,24:2
70,32:3
70,33:3
70,34:3
70,35:3
70,39:5
70,40:5
70,41:2
70,43:5
70,44:5
70,45:5
70,46:5
70,47:5
70,48:7
70,49:5
70,52:2
70,53:2
70,58:2
70,59:2
70,60:2
70,61:2
70,62:2
70,64:2
70,65:2
70,66:2
70,67:7
70,69:2
70,71:7
72,9:2
72,18:2
72,19:2
72,20:2
72,21:2
72,22:2
72,23:2
72,24:2
72,32:3
72,33:3
72,34:3
72,35:3
72,39:5
72,40:5
72,41:2
72,43:5
72,44:5
72,45:5
72,46:5
72,47:5
72,48:7
72,49:5
72,52:2
72,53:2
72,58:2
72,59:2
72,60:2
72,61:2
72,62:2
72,64:2
72,65:2
72,66:2
72,67:7
72,69:2
72,71:7
73,9:2
73,18:2
73,19:2
73,20:2
73,21:2
73,22:2
73,23:2
73,24:2
73,32:3
73,33:3
73,34:3
73,35:3
73,39:5
73,40:5
73,41:2
73,43:5
73,44:5
73,45:5
73,46:5
73,47:5
73,48:7
73,49:5
73,52:2
73,53:2
73,58:2
73,59:2
73,60:2
73,61:2
73,62:2
73,64:2
73,65:2
73,66:2
73,67:7
73,69:2
73,71:7
74,9:2
74,18:2
74,19:2
74,20:2
74,21:2
74,22:2
74,23:2
74,24:2
74,32:3
74,33:3
74,34:3
74,35:3
74,39:5
74,40:5
74,41:2
74,43:5
74,44:5
74,45:5
74,46:5
74,47:5
74,48:7
74,49:5
74,52:2
74,53:2
74,58:2
74,59:2
74,60:2
74,61:2
74,62:2
74,64:2
74,65:2
74,66:2
74,67:7
74,69:2
74,71:7
75,9:2
75,18:2
75,19:2
75,20:2
75,21:2
75,22:2
75,23:2
75,24:2
75,32:3
75,33:3
75,34:3
75,35:3
75,39:5
75,40:5
75,41:2
75,43:5
75,44:5
75,45:5
75,46:5
75,47:5
75,48:7
75,49:5
75,52:2
75,53:2
75,58:2
75,59:2
75,60:2
75,61:2
75,62:2
75,64:2
75,65:2
75,66:2
75,67:7
75,69:2
75,71:7
76,9:2
76,18:2
76,19:2
76,20:2
76,21:2
76,22:2
76,23:2
76,24:2
76,32:3
76,33:3
76,34:3
76,35:3
76,39:5
76,40:5
76,41:2
76,43:5
76,44:5
76,45:5
76,46:5
76,47:5
76,48:7
76,49:5
76,52:2
76,53:2
76,58:2
76,59:2
76,60:2
76,61:2
76,62:2
76,64:2
76,65:2
76,66:2
76,67:7
76,69:2
76,71:7
77,1:2
77,2:2
77,3:2
77,4:2
77,5:2
77,6:2
77,7:2
77,8:2
77,9:5
77,11:2
77,18:5
77,19:5
77,20:5
77,21:5
77,22:5
77,23:5
77,24:5
77,32:6
77,33:6
77,34:6
77,35:6
77,36:2
77,37:2
77,38:2
77,39:8
77,40:8
77,41:5
77,43:8
77,44:8
77,45:8
77,46:8
77,47:8
77,48:10
77,49:8
77,52:5
77,53:5
77,58:5
77,59:5
77,60:5
77,61:5
77,62:5
77,64:5
77,65:5
77,66:5
77,67:10
77,68:3
77,69:5
77,70:3
77,71:10
77,72:3
77,73:3
77,74:3
77,75:3
77,76:3
77,80:3
78,1:2
78,2:2
78,3:2
78,4:2
78,5:2
78,6:2
78,7:2
78,8:2
78,9:5
78,11:2
78,18:5
78,19:5
78,20:5
78,21:5
78,22:5
78,23:5
78,24:5
78,32:6
78,33:6
78,34:6
78,35:6
78,36:2
78,37:2
78,38:2
78,39:8
78,40:8
78,41:5
78,43:8
78,44:8
78,45:8
78,46:8
78,47:8
78,48:10
78,49:8
78,52:5
78,53:5
78,58:5
78,59:5
78,60:5
78,61:5
78,62:5
78,64:5
78,65:5
78,66:5
78,67:10
78,68:3
78,69:5
78,70:3
78,71:10
78,72:3
78,73:3
78,74:3
78,75:3
78,76:3
78,80:3
79,1:2
79,2:2
79,3:2
79,4:2
79,5:2
79,6:2
79,7:2
79,8:2
79,9:5
79,11:2
79,18:5
79,19:5
79,20:5
79,21:5
79,22:5
79,23:5
79,24:5
79,32:6
79,33:6
79,34:6
79,35:6
79,36:2
79,37:2
79,38:2
79,39:8
79,40:8
79,41:5
79,43:8
79,44:8
79,45:8
79,46:8
79,47:8
79,48:10
79,49:8
79,52:5
79,53:5
79,58:5
79,59:5
79,60:5
79,61:5
79,62:5
79,64:5
79,65:5
79,66:5
79,67:10
79,68:3
79,69:5
79,70:3
79,71:10
79,72:3
79,73:3
79,74:3
79,75:3
79,76:3
79,80:3
80,9:2
80,18:2
80,19:2
80,20:2
80,21:2
80,22:2
80,23:2
80,24:2
80,32:3
80,33:3
80,34:3
80,35:3
80,39:5
80,40:5
80,41:2
80,43:5
80,44:5
80,45:5
80,46:5
80,47:5
80,48:7
80,49:5
80,52:2
80,53:2
80,58:2
80,59:2
80,60:2
80,61:2
80,62:2
80,64:2
80,65:2
80,66:2
80,67:7
80,69:2
80,71:7
81,1:2
81,2:2
81,3:2
81,4:2
81,5:2
81,6:2
81,7:2
81,8:2
81,9:5
81,11:2
81,18:5
81,19:5
81,20:5
81,21:5
81,22:5
81,23:5
81,24:5
81,32:6
81,33:6
81,34:6
81,35:6
81,36:2
81,37:2
81,38:2
81,39:8
81,40:8
81,41:5
81,43:8
81,44:8
81,45:8
81,46:8
81,47:8
81,48:10
81,49:8
81,52:5
81,53:5
81,58:5
81,59:5
81,60:5
81,61:5
81,62:5
81,64:5
81,65:5
81,66:5
81,67:10
81,68:3
81,69:5
81,70:3
81,71:10
81,72:3
81,73:3
81,74:3
81,75:3
81,76:3
81,80:3
82,1:5
82,2:5
82,3:5
82,4:5
82,5:5
82,6:5
82,7:5
82,8:5
82,9:8
82,11:5
82,16:2
82,18:8
82,19:8
82,20:8
82,21:8
82,22:8
82,23:8
82,24:8
82,25:2
82,26:2
82,27:2
82,28:3
82,29:3
82,30:2
82,31:3
82,32:9
82,33:9
82,34:9
82,35:9
82,36:5
82,37:5
82,38:5
82,39:11
82,40:11
82,41:8
82,42:1
82,43:11
82,44:11
82,45:11
82,46:11
82,47:11
82,48:13
82,49:11
82,50:1
82,51:1
82,52:8
82,53:8
82,54:1
82,55:1
82,56:1
82,57:1
82,58:8
82,59:8
82,60:8
82,61:8
82,62:8
82,63:1
82,64:8
82,65:8
82,66:8
82,67:13
82,68:6
82,69:8
82,70:6
82,71:13
82,72:6
82,73:6
82,74:6
82,75:6
82,76:6
82,77:3
82,78:3
82,79:3
82,80:6
82,81:3
82,84:3
83,1:5
83,2:5
83,3:5
83,4:5
83,5:5
83,6:5
83,7:5
83,8:5
83,9:8
83,11:5
83,16:2
83,18:8
83,19:8
83,20:8
83,21:8
83,22:8
83,23:8
83,24:8
83,25:2
83,26:2
83,27:2
83,28:3
83,29:3
83,30:2
83,31:3
83,32:9
83,33:9
83,34:9
83,35:9
83,36:5
83,37:5
83,38:5
83,39:11
83,40:11
83,41:8
83,42:1
83,43:11
83,44:11
83,45:11
83,46:11
83,47:11
83,48:13
83,49:11
83,50:1
83,51:1
83,52:8
83,53:8
83,54:1
83,55:1
83,56:1
83,57:1
83,58:8
83,59:8
83,60:8
83,61:8
83,62:8
83,63:1
83,64:8
83,65:8
83,66:8
83,67:13
83,68:6
83,69:8
83,70:6
83,71:13
83,72:6
83,73:6
83,74:6
83,75:6
83,76:6
83,77:3
83,78:3
83,79:3
83,80:6
83,81:3
83,84:3
84,1:2
84,2:2
84,3:2
84,4:2
84,5:2
84,6:2
84,7:2
84,8:2
84,9:5
84,11:2
84,18:5
84,19:5
84,20:5
84,21:5
84,22:5
84,23:5
84,24:5
84,32:6
84,33:6
84,34:6
84,35:6
84,36:2
84,37:2
84,38:2
84,39:8
84,40:8
84,41:5
84,43:8
84,44:8
84,45:8
84,46:8
84,47:8
84,48:10
84,49:8
84,52:5
84,53:5
84,58:5
84,59:5
84,60:5
84,61:5
84,62:5
84,64:5
84,65:5
84,66:5
84,67:10
84,68:3
84,69:5
84,70:3
84,71:10
84,72:3
84,73:3
84,74:3
84,75:3
84,76:3
84,80:3
85,1:5
85,2:5
85,3:5
85,4:5
85,5:5
85,6:5
85,7:5
85,8:5
85,9:8
85,11:5
85,16:2
85,18:8
85,19:8
85,20:8
85,21:8
85,22:8
85,23:8
85,24:8
85,25:2
85,26:2
85,27:2
85,28:3
85,29:3
85,30:2
85,31:3
85,32:9
85,33:9
85,34:9
85,35:9
85,36:5
85,37:5
85,38:5
85,39:11
85,40:11
85,41:8
85,42:1
85,43:11
85,44:11
85,45:11
85,46:11
85,47:11
85,48:13
85,49:11
85,50:1
85,51:1
85,52:8
85,53:8
85,54:1
85,55:1
85,56:1
85,57:1
85,58:8
85,59:8
85,60:8
85,61:8
85,62:8
85,63:1
85,64:8
85,65:8
85,66:8
85,67:13
85,68:6
85,69:8
85,70:6
85,71:13
85,72:6
85,73:6
85,74:6
85,75:6
85,76:6
85,77:3
85,78:3
85,79:3
85,80:6
85,81:3
85,84:3
86,1:5
86,2:5
86,3:5
86,4:5
86,5:5
86,6:5
86,7:5
86,8:5
86,9:8
86,11:5
86,16:2
86,18:8
86,19:8
86,20:8
86,21:8
86,22:8
86,23:8
86,24:8
86,25:2
86,26:2
86,27:2
86,28:3
86,29:3
86,30:2
86,31:3
86,32:9
86,33:9
86,34:9
86,35:9
86,36:5
86,37:5
86,38:5
86,39:11
86,40:11
86,41:8
86,42:1
86,43:11
86,44:11
86,45:11
86,46:11
86,47:11
86,48:13
86,49:11
86,50:1
86,51:1
86,52:8
86,53:8
86,54:1
86,55:1
86,56:1
86,57:1
86,58:8
86,59:8
86,60:8
86,61:8
86,62:8
86,63:1
86,64:8
86,65:8
86,66:8
86,67:13
86,68:6
86,69:8
86,70:6
86,71:13
86,72:6
86,73:6
86,74:6
86,75:6
86,76:6
86,77:3
86,78:3
86,79:3
86,80:6
86,81:3
86,84:3
87,1:5
87,2:5
87,3:5
87,4:5
87,5:5
87,6:5
87,7:5
87,8:5
87,9:8
87,11:5
87,16:2
87,18:8
87,19:8
87,20:8
87,21:8
87,22:8
87,23:8
87,24:8
87,25:2
87,26:2
87,27:2
87,28:3
87,29:3
87,30:2
87,31:3
87,32:9
87,33:9
87,34:9
87,35:9
87,36:5
87,37:5
87,38:5
87,39:11
87,40:11
87,41:8
87,42:1
87,43:11
87,44:11
87,45:11
87,46:11
87,47:11
87,48:13
87,49:11
87,50:1
87,51:1
87,52:8
87,53:8
87,54:1
87,55:1
87,56:1
87,57:1
87,58:8
87,59:8
87,60:8
87,61:8
87,62:8
87,63:1
87,64:8
87,65:8
87,66:8
87,67:13
87,68:6
87,69:8
87,70:6
87,71:13
87,72:6
87,73:6
87,74:6
87,75:6
87,76:6
87,77:3
87,78:3
87,79:3
87,80:6
87,81:3
87,84:3
88,1:5
88,2:5
88,3:5
88,4:5
88,5:5
88,6:5
88,7:5
88,8:5
88,9:8
88,11:5
88,16:2
88,18:8
88,19:8
88,20:8
88,21:8
88,22:8
88,23:8
88,24:8
88,25:2
88,26:2
88,27:2
88,28:3
88,29:3
88,30:2
88,31:3
88,32:9
88,33:9
88,34:9
88,35:9
88,36:5
88,37:5
88,38:5
88,39:11
88,40:11
88,41:8
88,42:1
88,43:11
88,44:11
88,45:11
88,46:11
88,47:11
88,48:13
88,49:11
88,50:1
88,51:1
88,52:8
88,53:8
88,54:1
88,55:1
88,56:1
88,57:1
88,58:8
88,59:8
88,60:8
88,61:8
88,62:8
88,63:1
88,64:8
88,65:8
88,66:8
88,67:13
88,68:6
88,69:8
88,70:6
88,71:13
88,72:6
88,73:6
88,74:6
88,75:6
88,76:6
88,77:3
88,78:3
88,79:3
88,80:6
88,81:3
88,84:3
89,1:5
89,2:5
89,3:5
89,4:5
89,5:5
89,6:5
89,7:5
89,8:5
89,9:8
89,11:5
89,16:2
89,18:8
89,19:8
89,20:8
89,21:8
89,22:8
89,23:8
89,24:8
89,25:2
89,26:2
89,27:2
89,28:3
89,29:3
89,30:2
89,31:3
89,32:9
89,33:9
89,34:9
89,35:9
89,36:5
89,37:5
89,38:5
89,39:11
89,40:11
89,41:8
89,42:1
89,43:11
89,44:11
89,45:11
89,46:11
89,47:11
89,48:13
89,49:11
89,50:1
89,51:1
89,52:8
89,53:8
89,54:1
89,55:1
89,56:1
89,57:1
89,58:8
89,59:8
89,60:8
89,61:8
89,62:8
89,63:1
89,64:8
89,65:8
89,66:8
89,67:13
89,68:6
89,69:8
89,70:6
89,71:13
89,72:6
89,73:6
89,74:6
89,75:6
89,76:6
89,77:3
89,78:3
89,79:3
89,80:6
89,81:3
89,84:3

<end>

<optimal SALBP-1 value>
14


<rand seed>
467321153

<Lower Bounds>
Lm1=13
Lms1=13
Lm2=2
Lm3=2
Lm4=13
Best=13

<Optimal Stations (Iterations: 10)>
16
